;; sequence(s): A14824
;; terms: 0 1 12 123 1234 12345 123456 1234567 12345678 123456789 1234567900 12345679011 123456790122 1234567901233 12345679012344 123456790123455 1234567901234566 12345679012345677 123456790123456788 1234567901234567899
;; small program: loop((2 * ((2 * (x + x)) + x)) + y, x, 0)
;; fast program: loop((2 + (2 * (2 + 2))) * (x + y), x - 1, 0) + x
(set-logic UFNIA)
(declare-fun f0 (Int Int) Int)
(declare-fun g0 (Int) Int)
(declare-fun h0 () Int)
(declare-fun u0 (Int Int) Int)
(declare-fun v0 (Int) Int)
(declare-fun small (Int) Int)
(declare-fun f1 (Int Int) Int)
(declare-fun g1 (Int) Int)
(declare-fun h1 () Int)
(declare-fun u1 (Int Int) Int)
(declare-fun v1 (Int) Int)
(declare-fun fast (Int) Int)
(assert (forall ((x Int) (y Int)) (= (f0 x y) (+ (* 2 (+ (* 2 (+ x x)) x)) y))))
(assert (forall ((x Int)) (= (g0 x) x)))
(assert (= h0 0))
(assert (forall ((x Int) (y Int)) (= (u0 x y) (ite (<= x 0) y (f0 (u0 (- x 1) y) x)))))
(assert (forall ((x Int)) (= (v0 x) (u0 (g0 x) h0))))
(assert (forall ((x Int)) (= (small x) (v0 x))))
(assert (forall ((x Int) (y Int)) (= (f1 x y) (* (+ 2 (* 2 (+ 2 2))) (+ x y)))))
(assert (forall ((x Int)) (= (g1 x) (- x 1))))
(assert (= h1 0))
(assert (forall ((x Int) (y Int)) (= (u1 x y) (ite (<= x 0) y (f1 (u1 (- x 1) y) x)))))
(assert (forall ((x Int)) (= (v1 x) (u1 (g1 x) h1))))
(assert (forall ((x Int)) (= (fast x) (+ (v1 x) x))))
(assert (exists ((c Int)) (and (>= c 0) (not (= (small c) (fast c))))))
(check-sat)
